n=9;
m=31;
k=4;
initial_edges=[
(1, 3),
(1, 2),
(1, 9),
(1, 4),
(1, 7),
(1, 6),
(1, 5),
(1, 8),
(2, 6),
(2, 4),
(2, 3),
(2, 9),
(3, 7),
(3, 4),
(3, 5),
(3, 9),
(3, 8),
(3, 6),
(4, 7),
(4, 5),
(4, 8),
(4, 6),
(4, 9),
(5, 6),
(5, 9),
(5, 7),
(5, 8),
(6, 9),
(6, 7),
(7, 9),
(8, 9),
];